
List of user-set options:

                                    Name   Value                used
                           compl_inf_tol = 1                     yes
                         constr_viol_tol = 1                     yes
                            dual_inf_tol = 1000                  yes
                           linear_solver = ma97                  yes
                              ma86_small = 1e-30                  no
                                  ma86_u = 0.0001                 no
                              ma97_order = best                  yes
                              ma97_small = 1e-30                 yes
                            ma97_switch1 = at_start              yes
                            ma97_switch2 = od_hd_reuse           yes
                                  ma97_u = 1e-06                 yes
                               ma97_umax = 0.5                   yes
                                max_iter = 1000                  yes
                    max_refinement_steps = 20                    yes
                    min_refinement_steps = 5                     yes
                                 mu_init = 1e-06                 yes
           mu_superlinear_decrease_power = 1.25                  yes
                   nlp_scaling_min_value = 1e-08                 yes
                        option_file_name = Preset_Case:_894_NCP.opt  yes
                             output_file = ./tmp/Preset_Case:_894_NCP.output  yes
                      print_user_options = yes                   yes
        required_infeasibility_reduction = 1                      no
                                     tol = 1e-08                 yes
                   warm_start_bound_frac = 1e-20                 yes
                   warm_start_bound_push = 1e-20                 yes
                   warm_start_init_point = yes                   yes
              warm_start_mult_bound_push = 1e-20                 yes
                warm_start_mult_init_max = 1e+40                 yes
             warm_start_slack_bound_frac = 1e-20                 yes
             warm_start_slack_bound_push = 1e-20                 yes

******************************************************************************
This program contains Ipopt, a library for large-scale nonlinear optimization.
 Ipopt is released as open source code under the Eclipse Public License (EPL).
         For more information visit http://projects.coin-or.org/Ipopt
******************************************************************************

This is Ipopt version 3.12.10, running with linear solver ma97.

Number of nonzeros in equality constraint Jacobian...:   117167
Number of nonzeros in inequality constraint Jacobian.:      213
Number of nonzeros in Lagrangian Hessian.............:    47513

Total number of variables............................:    29977
                     variables with only lower bounds:    11312
                variables with lower and upper bounds:    15135
                     variables with only upper bounds:        0
Total number of equality constraints.................:    29864
Total number of inequality constraints...............:       25
        inequality constraints with only lower bounds:        4
   inequality constraints with lower and upper bounds:        0
        inequality constraints with only upper bounds:       21

iter    objective    inf_pr   inf_du lg(mu)  ||d||  lg(rg) alpha_du alpha_pr  ls
   0 -1.7490433e-01 1.23e-01 2.00e+00  -6.0 0.00e+00    -  0.00e+00 0.00e+00   0
In iteration 0, 8 Slacks too small, adjusting variable bounds
   1 -1.7490433e-01 1.23e-01 5.55e+02  -6.0 1.07e+10    -  5.55e-14 4.62e-19h  1
   2 -1.7490433e-01 1.23e-01 6.38e+02  -6.0 5.13e+01    -  1.00e-02 1.57e-05f  1
   3 -1.7490438e-01 1.23e-01 6.27e+02  -6.0 4.41e+01    -  2.92e-02 5.24e-05h  1
   4 -1.7492590e-01 1.17e-01 1.11e+03  -6.0 4.34e+01    -  2.17e-02 4.34e-02h  1
   5 -1.7493330e-01 1.15e-01 1.09e+03  -6.0 3.95e+01    -  2.08e-03 2.12e-02h  1
   6 -1.7493358e-01 1.15e-01 1.09e+03  -6.0 3.79e+01    -  7.57e-02 1.71e-03h  1
   7 -1.7457197e-01 1.05e-01 1.04e+03  -6.0 2.94e+01    -  3.60e-01 8.44e-02h  1
   8 -1.7371807e-01 1.14e-01 1.03e+03  -6.0 3.73e+01    -  2.09e-01 3.93e-01H  1
   9 -1.7367572e-01 1.31e-01 1.00e+03  -6.0 2.63e+01    -  1.15e-01 1.47e-01h  3
iter    objective    inf_pr   inf_du lg(mu)  ||d||  lg(rg) alpha_du alpha_pr  ls
  10 -1.7356537e-01 1.39e-01 9.42e+02  -6.0 2.32e+01    -  9.32e-02 1.12e-01h  3
  11 -1.7355340e-01 1.48e-01 8.84e+02  -6.0 1.98e+01    -  1.58e-01 1.03e-01h  3
  12 -1.7354634e-01 1.52e-01 8.28e+02  -6.0 1.82e+01    -  1.24e-01 8.86e-02h  3
  13 -1.7356163e-01 1.55e-01 7.75e+02  -6.0 1.65e+01    -  3.53e-01 8.35e-02h  3
  14 -1.7362675e-01 1.68e-01 7.12e+02  -6.0 1.50e+01    -  2.91e-01 1.02e-01h  3
  15 -1.7369156e-01 1.71e-01 6.66e+02  -6.0 1.31e+01    -  9.54e-02 6.78e-02h  4
  16 -1.7405954e-01 2.08e-01 5.73e+02  -6.0 1.20e+01    -  5.78e-01 1.53e-01h  3
  17 -1.7420065e-01 2.20e-01 5.22e+02  -6.0 1.40e+01    -  5.31e-01 8.76e-02h  4
  18 -1.7443477e-01 2.38e-01 4.78e+02  -6.0 1.26e+01    -  6.49e-01 8.19e-02h  4
  19 -1.7625912e-01 1.65e+00 2.00e+03  -6.0 9.18e+00  -4.0 3.19e-02 5.96e-01h  1
iter    objective    inf_pr   inf_du lg(mu)  ||d||  lg(rg) alpha_du alpha_pr  ls
  20 -1.7967621e-01 5.12e-01 9.15e+02  -6.0 2.00e+01    -  7.03e-01 7.55e-01h  1
  21 -1.8311076e-01 4.65e-01 4.20e+02  -6.0 3.50e+01    -  5.36e-01 5.75e-01h  1
  22 -1.8550559e-01 4.25e-01 2.96e+02  -6.0 5.81e+01    -  1.55e-01 3.08e-01h  1
  23 -1.8814299e-01 3.16e-01 2.08e+02  -6.0 7.60e+01    -  4.62e-01 3.06e-01h  1
  24 -1.9261080e-01 3.98e-01 1.13e+02  -6.0 1.40e+02    -  2.51e-01 4.35e-01h  1
  25 -1.9548680e-01 5.13e-01 7.23e+01  -6.0 1.92e+02    -  7.66e-01 3.59e-01h  1
  26 -1.9606490e-01 2.03e-01 2.69e+01  -6.0 3.00e+00  -4.5 4.14e-01 6.30e-01h  1
  27 -1.9631791e-01 1.24e-01 3.80e+01  -6.0 1.44e+00  -5.0 8.79e-04 4.49e-01h  1
  28 -1.9633978e-01 9.84e-02 2.94e+01  -6.0 4.40e+00  -5.4 7.37e-01 2.03e-01f  1
  29 -1.9700032e-01 1.09e-01 9.95e+00  -6.0 1.11e+01  -5.9 7.38e-01 6.58e-01f  1
iter    objective    inf_pr   inf_du lg(mu)  ||d||  lg(rg) alpha_du alpha_pr  ls
  30 -1.9725451e-01 2.92e-02 3.65e-01  -6.0 3.62e+00  -5.5 9.84e-01 1.00e+00h  1
  31 -1.9749069e-01 1.00e-02 5.52e+00  -6.0 2.37e+00  -5.1 1.00e+00 8.49e-01h  1
  32 -1.9781398e-01 3.02e-02 4.86e+02  -6.0 4.39e+00  -5.5 1.00e+00 7.38e-01f  1
  33 -1.9817612e-01 2.60e-02 1.21e+03  -6.0 9.47e+00  -5.1 2.86e-01 1.87e-01h  1
  34 -1.9915836e-01 5.63e-02 2.56e+03  -6.0 5.17e+00  -5.6 1.00e+00 7.62e-01h  1
  35 -1.9993671e-01 1.41e-01 5.19e+03  -6.0 1.53e+01  -6.1 4.85e-01 3.64e-01f  1
  36 -2.0173578e-01 1.13e-01 5.79e+02  -6.0 5.25e+00  -5.6 1.00e+00 1.00e+00h  1
  37 -2.0244231e-01 1.26e-01 6.97e+03  -6.0 1.51e+01  -6.1 1.89e-01 2.36e-01h  1
  38 -2.0265287e-01 1.11e-01 1.03e+07  -6.0 2.39e+01  -5.7 1.32e-03 1.43e-01f  1
  39 -2.0332180e-01 2.06e+00 2.42e+04  -6.0 1.89e+01  -6.2 1.26e-01 1.00e+00f  1
iter    objective    inf_pr   inf_du lg(mu)  ||d||  lg(rg) alpha_du alpha_pr  ls
  40 -2.0349492e-01 1.64e+00 1.75e+04  -6.0 1.07e+01  -5.7 1.00e+00 2.75e-01h  1
  41 -2.0414362e-01 3.36e-02 4.78e+01  -6.0 2.05e+01  -6.2 1.00e+00 1.00e+00h  1
  42 -2.0443091e-01 2.59e-02 4.11e+01  -6.0 6.33e+01  -6.7 7.56e-01 1.75e-01h  1
  43 -2.0482561e-01 5.74e-02 1.45e+01  -6.0 2.18e+01  -6.3 1.00e+00 6.52e-01f  1
  44 -2.0640288e-01 9.18e-01 1.53e+01  -6.0 7.13e+01  -6.7 9.43e-02 1.00e+00f  1
  45 -2.0719329e-01 3.78e-01 2.42e+00  -6.0 2.95e+01  -6.3 9.48e-01 1.00e+00h  1
  46 -2.0763037e-01 6.33e-01 3.81e+00  -6.0 1.97e+02  -6.8 7.52e-02 6.75e-02h  1
  47 -2.0884973e-01 8.77e+00 3.98e+01  -6.0 2.15e+02  -7.3 4.29e-01 1.63e-01h  1
  48 -2.0883467e-01 8.71e+00 3.96e+01  -6.0 4.76e+01  -3.2 5.90e-03 7.32e-03h  1
  49 -2.0881825e-01 8.65e+00 3.95e+01  -6.0 3.64e+01  -2.8 2.02e-03 6.11e-03h  1
iter    objective    inf_pr   inf_du lg(mu)  ||d||  lg(rg) alpha_du alpha_pr  ls
  50 -2.0880427e-01 8.52e+00 3.89e+01  -6.0 1.30e+01  -2.4 1.49e-02 1.51e-02h  1
  51 -2.0878705e-01 8.24e+00 3.77e+01  -6.0 1.13e+01  -2.0 2.49e-02 3.29e-02h  1
  52 -2.0876990e-01 8.18e+00 3.72e+01  -6.0 2.44e+01  -2.4 1.80e-02 7.88e-03h  1
  53 -2.0874803e-01 7.93e+00 3.40e+01  -6.0 1.05e+01  -2.0 1.83e-01 3.01e-02h  1
  54 -2.0867150e-01 7.81e+00 3.42e+01  -6.0 6.59e+01  -2.5 1.38e-02 1.53e-02h  1
  55 -2.0862207e-01 7.43e+00 5.98e+01  -6.0 1.14e+01  -2.1 2.91e-01 4.78e-02h  1
  56 -2.0850747e-01 5.58e+00 1.17e+03  -6.0 5.80e+00  -1.6 9.08e-02 2.46e-01h  1
  57 -2.0812503e-01 3.81e+00 4.52e+03  -6.0 2.81e+01  -2.1 1.23e-01 3.45e-01h  1
  58 -2.0839997e-01 3.72e+00 1.37e+04  -6.0 1.80e+01  -2.6 6.45e-02 1.00e+00h  1
  59 -2.0839103e-01 1.99e+00 7.26e+03  -6.0 3.19e-01  -1.3 7.73e-01 4.65e-01h  1
iter    objective    inf_pr   inf_du lg(mu)  ||d||  lg(rg) alpha_du alpha_pr  ls
  60 -2.0832905e-01 4.16e-03 2.45e+03  -6.0 2.45e-01  -1.7 7.18e-01 1.00e+00h  1
  61 -2.0832227e-01 3.72e-05 3.74e-01  -6.0 1.60e-01  -2.2 9.90e-01 1.00e+00h  1
  62 -2.0838630e-01 1.68e-03 1.92e+01  -6.0 1.17e+00  -2.7 1.41e-01 5.49e-01h  1
  63 -2.0841972e-01 2.59e-04 6.86e-01  -6.0 1.48e-01  -3.2 1.00e+00 1.00e+00h  1
  64 -2.0849846e-01 2.30e-03 1.03e-01  -6.0 2.08e-01  -3.6 9.87e-01 1.00e+00h  1
  65 -2.0859813e-01 5.88e-03 4.14e-01  -6.0 5.69e-01  -4.1 1.00e+00 5.26e-01h  1
  66 -2.0863394e-01 4.46e-03 3.08e-01  -6.0 7.12e-01  -4.6 5.10e-01 2.39e-01f  1
  67 -2.0880215e-01 1.40e-02 4.94e-01  -6.0 2.10e+00  -5.1 9.05e-01 6.53e-01f  1
  68 -2.0887744e-01 2.05e-02 2.22e+00  -6.0 4.14e+00  -5.6 1.00e+00 3.17e-01f  1
  69 -2.0911595e-01 8.46e-02 3.88e+00  -6.0 1.32e+01  -6.0 1.00e+00 3.89e-01f  1
iter    objective    inf_pr   inf_du lg(mu)  ||d||  lg(rg) alpha_du alpha_pr  ls
  70 -2.1029604e-01 2.18e+00 2.07e+01  -6.0 3.86e+01  -6.5 1.00e+00 7.52e-01h  1
  71 -2.1062127e-01 1.82e+00 1.44e+01  -6.0 2.76e+01  -6.1 3.58e-01 3.22e-01h  1
  72 -2.1065988e-01 1.77e+00 1.64e+01  -6.0 4.40e+01  -6.6 1.00e+00 2.90e-02h  1
  73 -2.1079933e-01 1.26e+00 8.78e+00  -6.0 1.84e+01  -6.1 1.00e+00 2.86e-01h  1
  74 -2.1206118e-01 1.12e+00 1.90e+01  -6.0 5.15e+01  -6.6 7.92e-01 1.00e+00h  1
  75 -2.1209554e-01 9.03e-03 2.07e-01  -6.0 2.52e+00  -5.3 1.00e+00 1.00e+00h  1
  76 -2.1229210e-01 1.90e-02 4.88e-01  -6.0 7.23e+00  -5.8 1.00e+00 1.00e+00h  1
  77 -2.1234672e-01 2.10e-02 2.53e+01  -6.0 2.12e+01  -6.2 1.00e+00 8.47e-02h  1
  78 -2.1349085e-01 1.12e-01 3.42e+00  -6.0 5.60e+01  -6.7 1.00e+00 1.00e+00f  1
  79 -2.1599831e-01 6.53e-01 2.01e+01  -6.0 1.32e+02  -7.2 1.00e+00 1.00e+00h  1
Error in an AMPL evaluation. Run with "halt_on_ampl_error yes" to see details.
Warning: Cutting back alpha due to evaluation error
iter    objective    inf_pr   inf_du lg(mu)  ||d||  lg(rg) alpha_du alpha_pr  ls
  80 -2.1786064e-01 8.71e-01 2.48e+01  -6.0 2.74e+02  -7.7 9.49e-01 3.96e-01h  2
  81 -2.1923202e-01 9.56e-01 1.24e+01  -6.0 1.69e+02  -7.2 1.00e+00 1.00e+00h  1
  82 -2.2148856e-01 9.41e-01 4.68e+01  -6.0 3.07e+02  -7.7 5.88e-01 4.25e-01h  1
Error in an AMPL evaluation. Run with "halt_on_ampl_error yes" to see details.
Warning: Cutting back alpha due to evaluation error
  83 -2.2148865e-01 9.39e-01 4.67e+01  -6.0 3.13e+01  -2.8 7.10e-03 1.91e-03h  2
  84 -2.2148748e-01 9.27e-01 4.60e+01  -6.0 1.20e+00  -1.4 2.49e-03 1.30e-02h  1
  85 -2.2148672e-01 9.15e-01 6.39e+01  -6.0 9.13e+00  -1.9 3.21e-03 1.29e-02h  1
  86 -2.2148424e-01 8.98e-01 7.16e+01  -6.0 3.92e+00  -1.5 1.52e-02 1.88e-02h  1
  87 -2.2148333e-01 8.93e-01 7.17e+01  -6.0 1.80e+00  -1.1 4.06e-02 5.23e-03h  1
Error in an AMPL evaluation. Run with "halt_on_ampl_error yes" to see details.
Warning: Cutting back alpha due to evaluation error
  88 -2.2148193e-01 8.89e-01 7.24e+01  -6.0 8.18e+00  -1.5 1.39e-02 4.62e-03h  2
  89 -2.2146728e-01 8.29e-01 8.21e+01  -6.0 2.20e+00  -1.1 9.65e-02 6.79e-02h  1
iter    objective    inf_pr   inf_du lg(mu)  ||d||  lg(rg) alpha_du alpha_pr  ls
  90 -2.2146523e-01 8.27e-01 8.28e+01  -6.0 4.77e+01  -1.6 5.54e-03 1.63e-03h  1
  91 -2.2146002e-01 8.09e-01 8.38e+01  -6.0 3.41e+00  -1.2 4.82e-01 2.24e-02h  1
Error in an AMPL evaluation. Run with "halt_on_ampl_error yes" to see details.
Warning: Cutting back alpha due to evaluation error
  92 -2.2145931e-01 8.08e-01 1.38e+02  -6.0 2.04e+01  -1.6 1.69e-02 7.48e-04h  2
  93 -2.2144263e-01 7.48e-01 9.32e+01  -6.0 3.31e+00  -1.2 2.62e-01 7.48e-02h  1
Error in an AMPL evaluation. Run with "halt_on_ampl_error yes" to see details.
Warning: Cutting back alpha due to evaluation error
Error in an AMPL evaluation. Run with "halt_on_ampl_error yes" to see details.
Warning: Cutting back alpha due to evaluation error
  94 -2.2144053e-01 7.42e-01 1.72e+02  -6.0 5.05e+00  -1.7 8.56e-02 7.22e-03h  3
  95 -2.2143022e-01 6.87e-01 5.38e+02  -6.0 1.86e+00  -1.3 2.30e-02 7.38e-02h  1
  96 -2.2150287e-01 2.74e-01 2.23e+03  -6.0 3.64e+00  -1.8 3.10e-02 6.10e-01h  1
  97 -2.2150497e-01 2.69e-01 2.19e+03  -6.0 1.35e+00  -1.3 2.19e-03 1.88e-02h  1
  98 -2.2151203e-01 2.56e-01 2.08e+03  -6.0 2.48e+00  -1.8 1.58e-01 4.94e-02h  1
  99 -2.2151318e-01 2.52e-01 2.05e+03  -6.0 2.00e+00  -1.4 3.27e-02 1.54e-02h  1
iter    objective    inf_pr   inf_du lg(mu)  ||d||  lg(rg) alpha_du alpha_pr  ls
 100 -2.2151993e-01 2.36e-01 1.92e+03  -6.0 2.31e+00  -1.9 2.60e-01 6.31e-02h  1
 101 -2.2152653e-01 2.02e-01 1.64e+03  -6.0 1.76e+00  -1.4 1.86e-02 1.44e-01h  1
 102 -2.2151903e-01 5.49e-02 1.53e+03  -6.0 7.00e-01  -1.0 7.30e-02 7.29e-01f  1
 103 -2.2152581e-01 4.59e-02 1.35e+03  -6.0 1.79e-01  -1.5 4.52e-01 1.64e-01h  1
 104 -2.2152200e-01 1.24e-02 3.60e+02  -6.0 1.32e-01  -1.1 3.61e-03 7.30e-01f  1
 105 -2.2152399e-01 3.06e-03 8.95e+01  -6.0 3.49e-02  -1.5 7.12e-01 7.53e-01h  1
 106 -2.2151700e-01 8.68e-06 1.23e+03  -6.0 7.88e-03  -2.0 9.21e-04 1.00e+00f  1
 107 -2.2151958e-01 6.71e-07 7.98e+00  -6.0 4.80e-03  -2.5 9.39e-01 1.00e+00h  1
 108 -2.2151948e-01 5.01e-06 4.17e+00  -6.0 4.20e-02  -3.0 4.77e-01 3.50e-01h  2
 109 -2.2152168e-01 5.89e-06 7.36e-02  -6.0 2.57e-02  -3.4 9.82e-01 1.00e+00h  1
iter    objective    inf_pr   inf_du lg(mu)  ||d||  lg(rg) alpha_du alpha_pr  ls
 110 -2.2148684e-01 1.25e-03 4.30e+01  -6.0 5.15e+00  -3.9 6.48e-02 2.24e-01f  2
 111 -2.2150496e-01 2.37e-04 7.82e-02  -6.0 1.67e-01  -4.4 1.00e+00 1.00e+00h  1
 112 -2.2151645e-01 2.14e-04 3.83e-02  -6.0 3.51e-01  -4.9 1.00e+00 1.00e+00h  1
 113 -2.2154233e-01 1.12e-03 2.89e-02  -6.0 1.07e+00  -5.3 1.00e+00 1.00e+00h  1
 114 -2.2159470e-01 7.15e-04 4.05e-02  -6.0 3.38e+00  -5.8 1.00e+00 1.00e+00h  1
 115 -2.2174909e-01 5.10e-03 3.47e-02  -6.0 1.01e+01  -6.3 1.00e+00 1.00e+00h  1
 116 -2.2220495e-01 4.31e-02 1.81e-01  -6.0 2.94e+01  -6.8 1.00e+00 1.00e+00h  1
 117 -2.2300832e-01 1.29e-01 1.08e+01  -6.0 7.12e+01  -7.3 1.00e+00 6.62e-01h  1
 118 -2.2500436e-01 1.76e+00 3.85e+00  -6.0 1.83e+02  -7.7 1.00e+00 1.00e+00f  1
 119 -2.2543834e-01 1.61e+00 2.32e+01  -6.0 2.51e+02  -8.2 8.70e-01 1.32e-01h  1
iter    objective    inf_pr   inf_du lg(mu)  ||d||  lg(rg) alpha_du alpha_pr  ls
 120 -2.2993370e-01 5.02e+00 1.64e+01  -6.0 6.17e+02  -8.7 1.00e+00 8.19e-01h  1
 121 -2.3092483e-01 5.64e+00 2.54e+01  -6.0 2.70e+03  -9.2 3.73e-01 8.80e-02h  1
 122 -2.3306899e-01 3.15e+00 7.92e+00  -6.0 4.64e+02  -8.7 7.80e-01 9.72e-01h  1
 123 -2.3460747e-01 8.60e+00 2.68e+01  -6.0 9.80e+03  -9.2 9.95e-02 8.18e-02h  1
 124 -2.3688974e-01 6.64e+00 8.14e+01  -6.0 2.08e+03  -8.8 5.05e-01 3.39e-01h  1
 125 -2.3705710e-01 6.45e+00 1.17e+02  -6.0 8.55e+02  -8.4 6.00e-01 3.09e-02h  1
 126 -2.3828556e-01 4.37e+00 9.10e+01  -6.0 8.84e+02  -8.8 2.53e-01 3.84e-01h  1
 127 -2.4258833e-01 1.38e+01 1.52e+02  -6.0 1.59e+03  -9.3 1.57e-01 4.88e-01h  1
 128 -2.4271930e-01 1.36e+01 2.27e+02  -6.0 1.86e+03  -8.9 1.55e-01 1.10e-02h  1
 129 -2.4613644e-01 1.82e+01 6.18e+02  -6.0 1.60e+03  -9.4 1.76e-01 4.20e-01h  1
iter    objective    inf_pr   inf_du lg(mu)  ||d||  lg(rg) alpha_du alpha_pr  ls
 130 -2.4710797e-01 2.00e+01 6.28e+02  -6.0 6.37e+03  -9.8 2.46e-02 5.31e-02h  1
 131 -2.4765946e-01 1.71e+01 5.52e+02  -6.0 7.97e+02  -9.4 1.30e-01 1.57e-01h  1
 132 -2.4903372e-01 1.19e+01 3.90e+02  -6.0 1.46e+03  -9.9 6.78e-02 3.03e-01h  1
 133 -2.4891026e-01 7.72e+00 1.52e+03  -6.0 1.31e+02  -6.8 7.37e-04 3.52e-01h  1
 134 -2.4887445e-01 6.96e+00 1.37e+03  -6.0 2.71e+02  -7.2 1.07e-01 9.94e-02h  1
 135 -2.4897784e-01 5.54e+00 1.09e+03  -6.0 2.75e+02  -7.7 2.16e-03 2.04e-01h  1
 136 -2.4958988e-01 2.43e+00 4.66e+02  -6.0 1.82e+02  -8.2 6.64e-01 5.72e-01h  1
 137 -2.4961792e-01 1.66e+00 3.20e+02  -6.0 1.40e+02  -7.8 5.03e-02 3.16e-01h  1
 138 -2.4969984e-01 1.35e+00 2.58e+02  -6.0 3.58e+02  -8.2 1.82e-02 1.88e-01h  1
 139 -2.5008099e-01 1.02e+00 1.98e+02  -6.0 2.21e+02  -8.7 1.00e+00 2.41e-01h  1
iter    objective    inf_pr   inf_du lg(mu)  ||d||  lg(rg) alpha_du alpha_pr  ls
 140 -2.5156173e-01 1.67e+00 7.51e+01  -6.0 4.28e+02  -9.2 2.38e-01 9.29e-01h  1
 141 -2.5169611e-01 1.26e+00 7.27e+01  -6.0 7.48e+02  -9.7 2.07e-02 2.42e-01h  1
 142 -2.5221695e-01 3.48e+00 1.04e+00  -6.0 4.31e+02  -9.3 1.00e+00 1.00e+00h  1
 143 -2.5247661e-01 8.80e+00 1.21e+01  -6.0 1.17e+03  -8.8 2.23e-01 5.36e-01h  1
 144 -2.5250226e-01 1.37e+01 3.41e+01  -6.0 1.04e+04  -9.3 2.20e-06 2.64e-02H  1
 145 -2.5293070e-01 4.80e+01 1.30e+05  -6.0 2.00e+03  -8.9 1.13e-01 1.00e+00h  1
 146 -2.5292079e-01 4.69e+01 1.28e+05  -6.0 7.40e+02  -7.5 7.89e-02 2.36e-02h  1
 147 -2.5270010e-01 3.54e+01 8.47e+04  -6.0 1.29e+02  -7.1 7.51e-02 2.45e-01h  2
 148 -2.5194613e-01 4.05e+00 6.80e+03  -6.0 1.63e+02  -7.6 3.37e-01 9.02e-01h  1
 149 -2.5204105e-01 2.42e+00 4.00e+03  -6.0 9.48e+01  -8.1 5.03e-01 4.10e-01h  1
iter    objective    inf_pr   inf_du lg(mu)  ||d||  lg(rg) alpha_du alpha_pr  ls
 150 -2.5227553e-01 7.14e-01 2.56e+01  -6.0 1.97e+02  -8.6 1.00e+00 1.00e+00h  1
 151 -2.5233288e-01 7.00e-01 2.39e+01  -6.0 6.48e+02  -9.0 1.22e-01 6.32e-02h  1
 152 -2.5296660e-01 4.20e+00 1.31e+01  -6.0 9.69e+02  -9.5 3.59e-01 4.68e-01h  1
 153 -2.5294659e-01 4.17e+00 1.30e+01  -6.0 2.61e+03  -8.2 1.61e-02 9.87e-03h  1
 154 -2.5297706e-01 3.22e+00 2.72e+01  -6.0 5.04e+02  -8.7 2.01e-01 4.84e-01h  1
 155 -2.5302975e-01 2.24e+00 1.36e+01  -6.0 3.23e+02  -9.1 5.87e-02 3.60e-01h  1
 156 -2.5294011e-01 7.03e-03 9.87e+00  -6.0 8.84e+00  -6.9 3.73e-01 1.00e+00h  1
 157 -2.5293993e-01 5.90e-04 4.16e-01  -6.0 5.32e+00  -7.4 1.00e+00 1.00e+00h  1
 158 -2.5295857e-01 7.03e-04 7.31e-02  -6.0 1.66e+01  -7.9 1.00e+00 1.00e+00h  1
 159 -2.5298306e-01 4.36e-03 4.61e-02  -6.0 5.21e+01  -8.3 1.00e+00 1.00e+00h  1
iter    objective    inf_pr   inf_du lg(mu)  ||d||  lg(rg) alpha_du alpha_pr  ls
 160 -2.5302500e-01 3.39e-02 2.27e-02  -6.0 1.58e+02  -8.8 1.00e+00 1.00e+00h  1
 161 -2.5315517e-01 2.16e-01 2.09e-01  -6.0 4.68e+02  -9.3 1.00e+00 1.00e+00h  1
 162 -2.5319342e-01 7.87e-02 7.39e-02  -6.0 1.87e+02  -8.9 6.84e-01 7.10e-01h  1
 163 -2.5329871e-01 2.83e-01 2.41e-01  -6.0 4.60e+02  -9.3 1.00e+00 1.00e+00f  1
 164 -2.5349256e-01 1.01e+00 7.51e-01  -6.0 1.31e+03  -9.8 5.14e-01 5.25e-01h  1
 165 -2.5360699e-01 7.57e-01 3.69e+00  -6.0 4.89e+02  -9.4 6.68e-01 9.41e-01h  1
 166 -2.5398075e-01 2.21e+00 1.77e+00  -6.0 1.33e+03  -9.9 1.00e+00 1.00e+00h  1
 167 -2.5401151e-01 2.19e+00 1.75e+00  -6.0 2.80e+04 -10.3 1.11e-02 1.23e-02h  1
Error in an AMPL evaluation. Run with "halt_on_ampl_error yes" to see details.
Warning: Cutting back alpha due to evaluation error
 168 -2.5411886e-01 2.08e+00 2.45e+00  -6.0 1.06e+04 -10.8 1.83e-02 8.45e-02h  2
 169 -2.5412240e-01 2.00e+00 2.35e+00  -6.0 6.47e+02  -8.6 3.58e-02 3.50e-02h  1
Error in an AMPL evaluation. Run with "halt_on_ampl_error yes" to see details.
Warning: Cutting back alpha due to evaluation error
iter    objective    inf_pr   inf_du lg(mu)  ||d||  lg(rg) alpha_du alpha_pr  ls
 170 -2.5412138e-01 1.99e+00 2.38e+00  -6.0 6.33e+02  -9.1 2.32e-04 5.22e-03f  2
 171 -2.5412289e-01 1.92e+00 2.31e+00  -6.0 9.11e+01  -7.7 6.09e-02 3.62e-02h  1
 172 -2.5409482e-01 3.76e-02 5.11e+00  -6.0 5.42e+01  -8.2 6.21e-01 1.00e+00f  1
 173 -2.5412159e-01 4.05e-02 2.49e-02  -6.0 8.07e+01  -8.7 1.00e+00 1.00e+00h  1
 174 -2.5416429e-01 1.60e-01 3.34e-01  -6.0 2.32e+02  -9.2 8.77e-01 7.79e-01h  1
 175 -2.5422512e-01 6.44e-01 4.51e+00  -6.0 6.32e+02  -9.6 1.00e+00 4.61e-01h  1
 176 -2.5459116e-01 2.75e+00 1.18e+00  -6.0 1.68e+03 -10.1 1.00e+00 1.00e+00h  1
 177 -2.5470451e-01 7.12e-01 7.32e-01  -6.0 6.11e+02  -9.7 8.83e-01 1.00e+00h  1
 178 -2.5470717e-01 7.07e-01 7.63e-01  -6.0 5.58e+03  -9.3 5.88e-03 7.60e-03h  1
Error in an AMPL evaluation. Run with "halt_on_ampl_error yes" to see details.
Warning: Cutting back alpha due to evaluation error
 179 -2.5470893e-01 6.84e-01 9.69e-01  -6.0 4.71e+02  -9.7 5.99e-03 3.37e-02h  2
iter    objective    inf_pr   inf_du lg(mu)  ||d||  lg(rg) alpha_du alpha_pr  ls
 180 -2.5470947e-01 6.30e-01 3.41e+00  -6.0 8.04e+01  -7.5 1.65e-01 7.85e-02h  1
 181 -2.5469513e-01 9.40e-03 2.87e-01  -6.0 3.83e+01  -8.0 1.00e+00 1.00e+00f  1
 182 -2.5471219e-01 4.33e-03 3.45e-02  -6.0 3.02e+01  -8.5 1.00e+00 1.00e+00h  1
 183 -2.5471364e-01 4.19e-03 6.99e-01  -6.0 1.24e+02  -8.9 2.24e-01 8.56e-02h  2
 184 -2.5471230e-01 4.36e-03 6.24e+00  -6.0 2.63e+02  -9.4 1.66e-01 5.63e-02h  2
 185 -2.5474519e-01 5.47e-01 4.63e+00  -6.0 7.81e+02  -9.9 7.56e-01 5.22e-01h  1
 186 -2.5485568e-01 5.73e-01 1.46e+01  -6.0 3.29e+02  -9.5 1.20e-01 1.00e+00h  1
 187 -2.5494424e-01 1.72e+00 1.13e+01  -6.0 3.75e+03  -9.9 2.22e-01 2.05e-01h  1
 188 -2.5494998e-01 9.24e+00 5.82e+01  -6.0 1.69e+04    -  1.61e-01 5.00e-02h  1
 189 -2.5496273e-01 9.12e+00 2.92e+03  -6.0 3.47e+03 -10.4 4.04e-01 1.30e-02h  1
iter    objective    inf_pr   inf_du lg(mu)  ||d||  lg(rg) alpha_du alpha_pr  ls
 190 -2.5492737e-01 8.96e+00 2.44e+03  -6.0 4.60e+03  -9.1 3.23e-02 1.71e-02h  3
 191 -2.5497379e-01 8.30e+00 3.18e+03  -6.0 3.96e+02  -8.7 2.23e-02 7.38e-02h  1
 192 -2.5497284e-01 4.58e+01 2.42e+03  -6.0 4.66e+04    -  5.87e-02 3.75e-02h  1
 193 -2.5497258e-01 4.57e+01 2.40e+03  -6.0 1.45e+04    -  7.61e-05 1.69e-03H  1
 194 -2.5499912e-01 3.36e+01 2.32e+03  -6.0 1.92e+03    -  1.12e-01 2.69e-01h  1
 195 -2.5500018e-01 3.32e+01 2.58e+03  -6.0 7.59e+03    -  1.08e-01 1.82e-02h  1
 196 -2.5500982e-01 3.23e+01 2.47e+03  -6.0 9.73e+01  -8.2 3.42e-02 2.82e-02h  1
 197 -2.5502693e-01 2.56e+01 1.84e+03  -6.0 1.60e+03    -  3.83e-02 2.08e-01h  1
 198 -2.5504507e-01 2.41e+01 1.72e+03  -6.0 1.14e+03  -7.8 1.00e-01 5.81e-02h  1
 199 -2.5506672e-01 1.72e+01 1.21e+03  -6.0 1.63e+03    -  5.14e-03 2.87e-01f  1
iter    objective    inf_pr   inf_du lg(mu)  ||d||  lg(rg) alpha_du alpha_pr  ls
 200 -2.5512430e-01 1.25e+01 5.59e+03  -6.0 2.00e+02  -7.4 9.57e-03 2.73e-01h  1
 201 -2.5521790e-01 5.92e+00 2.25e+03  -6.0 1.47e+02  -7.9 8.09e-03 5.26e-01h  1
 202 -2.5517578e-01 4.91e+00 1.86e+03  -6.0 9.92e+01  -8.3 1.18e-01 1.69e-01h  1
 203 -2.5520581e-01 4.72e+00 1.78e+03  -6.0 4.28e+02  -7.9 4.89e-04 3.92e-02h  1
 204 -2.5564939e-01 7.10e+00 2.03e+02  -6.0 4.14e+01  -8.4 2.46e-01 1.00e+00h  1
 205 -2.5587757e-01 1.05e+01 1.57e+02  -6.0 9.64e+01  -7.1 1.97e-01 2.23e-01h  1
 206 -2.5626273e-01 4.18e+01 3.28e+01  -6.0 4.22e+01  -7.5 9.31e-01 6.66e-01h  1
 207 -2.5605199e-01 9.94e+00 9.40e+00  -6.0 1.51e+01  -8.0 1.00e+00 1.00e+00h  1
 208 -2.5617860e-01 4.63e+00 2.97e+00  -6.0 3.14e+01  -8.5 1.00e+00 1.00e+00h  1
 209 -2.5622685e-01 5.82e-02 5.25e-02  -6.0 9.46e+01  -9.0 1.00e+00 1.00e+00h  1
iter    objective    inf_pr   inf_du lg(mu)  ||d||  lg(rg) alpha_du alpha_pr  ls
 210 -2.5627869e-01 2.78e-01 3.09e-02  -6.0 2.98e+02  -9.5 1.00e+00 1.00e+00h  1
 211 -2.5632413e-01 1.17e+00 3.45e-01  -6.0 8.30e+02  -9.9 1.00e+00 1.00e+00h  1
 212 -2.5634929e-01 4.54e+00 8.01e+00  -6.0 1.95e+03 -10.4 1.00e+00 6.56e-01h  1
 213 -2.5636326e-01 3.06e+01 3.18e+01  -6.0 3.71e+03 -10.9 1.00e+00 5.50e-01h  1
 214 -2.5631396e-01 1.30e+02 2.06e+03  -6.0 8.45e+03    -  1.57e-01 6.24e-01h  1
 215 -2.5634224e-01 9.30e+01 1.41e+03  -6.0 2.44e+02  -9.6 2.81e-02 2.87e-01h  1
 216 -2.5641631e-01 5.85e+01 8.55e+02  -6.0 4.27e+02 -10.0 2.99e-01 3.71e-01h  1
 217 -2.5662963e-01 2.00e+01 2.24e+02  -6.0 1.71e+03 -10.5 5.28e-01 6.60e-01h  1
 218 -2.5723818e-01 7.39e+01 7.93e+01  -6.0 6.35e+03    -  1.04e-02 6.43e-01h  1
 219 -2.5750846e-01 6.62e+01 5.53e+01  -6.0 3.40e+03    -  2.22e-01 1.85e-01h  1
iter    objective    inf_pr   inf_du lg(mu)  ||d||  lg(rg) alpha_du alpha_pr  ls
 220 -2.5772346e-01 2.65e+01 1.16e+02  -6.0 9.79e+02    -  2.07e-01 6.94e-01h  1
 221 -2.5773291e-01 2.52e+01 1.07e+02  -6.0 1.29e+01  -5.6 7.00e-02 4.63e-02h  1
 222 -2.5783482e-01 1.97e+01 8.07e+01  -6.0 1.33e+01  -6.0 2.37e-01 2.18e-01h  1
 223 -2.5800220e-01 8.79e-02 3.85e+01  -6.0 8.09e+00  -6.5 6.67e-01 1.00e+00h  1
 224 -2.5805161e-01 6.82e-02 1.28e+02  -6.0 9.73e+00  -7.0 5.64e-01 2.23e-01h  1
 225 -2.5812654e-01 8.91e-02 1.37e+02  -6.0 1.29e+01  -7.5 1.00e+00 7.42e-01h  1
 226 -2.5821627e-01 4.45e-02 2.79e+01  -6.0 3.63e+01  -8.0 4.84e-01 5.60e-01f  1
 227 -2.5846078e-01 2.73e-01 2.69e+01  -6.0 9.61e+01  -8.4 1.00e+00 1.00e+00f  1
 228 -2.5861720e-01 2.48e-01 9.90e+02  -6.0 1.75e+02  -8.9 2.65e-01 4.01e-01h  1
 229 -2.5867246e-01 2.32e-01 1.24e+02  -6.0 2.33e+02  -9.4 5.53e-01 9.74e-02h  1
iter    objective    inf_pr   inf_du lg(mu)  ||d||  lg(rg) alpha_du alpha_pr  ls
 230 -2.5911972e-01 1.60e+00 2.89e+06  -6.0 4.16e+02  -9.9 1.87e-03 8.17e-01f  1
 231 -2.5915399e-01 1.96e+00 1.62e+06  -6.0 5.69e+02 -10.3 3.61e-01 4.40e-01h  1
 232 -2.5922142e-01 2.12e+00 1.29e+06  -6.0 8.93e+02 -10.8 2.65e-01 2.03e-01h  1
 233 -2.5924177e-01 2.60e+00 9.48e+05  -6.0 9.30e+02 -10.4 1.39e-01 2.64e-01h  1
 234 -2.5919800e-01 1.81e+00 3.33e+02  -6.0 3.14e+02  -5.5 3.96e-05 1.00e+00h  1
 235 -2.5917809e-01 3.89e-04 3.18e+00  -6.0 6.44e-01  -5.9 9.78e-01 1.00e+00h  1
 236 -2.5917216e-01 5.69e-04 2.01e-02  -6.0 1.12e+00  -6.4 1.00e+00 1.00e+00h  1
 237 -2.5916034e-01 4.60e-03 3.03e-02  -6.0 1.63e+00  -6.9 1.00e+00 1.00e+00h  1
 238 -2.5915123e-01 2.93e-03 1.64e-02  -6.0 4.05e+00  -7.4 1.00e+00 1.00e+00h  1
 239 -2.5915376e-01 3.76e-04 2.15e-03  -6.0 8.89e+00  -7.8 1.00e+00 1.00e+00h  1
iter    objective    inf_pr   inf_du lg(mu)  ||d||  lg(rg) alpha_du alpha_pr  ls
 240 -2.5916543e-01 3.27e-03 6.10e-03  -6.0 1.35e+01  -8.3 1.00e+00 1.00e+00h  1
 241 -2.5917535e-01 2.79e-02 1.49e-02  -6.0 3.94e+01  -8.8 1.00e+00 1.00e+00h  1
 242 -2.5918571e-01 2.39e-01 1.19e-01  -6.0 1.17e+02  -9.3 1.00e+00 1.00e+00h  1
 243 -2.5921014e-01 5.28e+00 1.77e+01  -6.0 5.49e+02  -9.7 5.77e-01 1.00e+00h  1
 244 -2.5922556e-01 4.52e+00 3.83e+01  -6.0 1.10e+03 -10.2 6.07e-01 1.54e-01h  2
 245 -2.5929471e-01 1.10e+01 2.41e+01  -6.0 9.07e+02 -10.7 3.84e-01 8.63e-01h  1
 246 -2.5929557e-01 1.74e+01 2.09e+01  -6.0 4.69e+03 -11.2 1.54e-01 2.20e-01h  2
 247 -2.5929446e-01 1.66e+01 2.16e+01  -6.0 1.66e+03    -  3.80e-01 4.62e-02h  2
 248 -2.5931121e-01 5.96e+00 2.78e+01  -6.0 4.78e+03    -  5.68e-01 5.32e-01H  1
 249 -2.5932376e-01 5.94e+01 9.76e+00  -6.0 5.11e+03 -11.7 1.00e+00 1.00e+00H  1
iter    objective    inf_pr   inf_du lg(mu)  ||d||  lg(rg) alpha_du alpha_pr  ls
 250 -2.5927099e-01 1.52e-01 2.46e+00  -6.0 6.24e+01 -10.3 1.00e+00 1.00e+00h  1
 251 -2.5928436e-01 1.71e+00 4.28e+00  -6.0 5.98e+02 -10.8 1.00e+00 1.00e+00H  1
 252 -2.5927472e-01 1.72e+00 2.67e+00  -6.0 3.32e+02 -10.4 1.00e+00 1.00e+00h  1
 253 -2.5933718e-01 1.02e+01 2.34e+01  -6.0 1.89e+03 -10.9 5.93e-01 1.00e+00H  1
 254 -2.5928963e-01 4.97e+00 3.04e+00  -6.0 5.59e+02    -  1.00e+00 1.00e+00h  1
 255 -2.5928808e-01 4.76e-01 6.73e+00  -6.0 1.63e+02    -  1.00e+00 1.00e+00h  1
 256 -2.5928297e-01 5.09e-01 6.34e+00  -6.0 1.72e+02    -  1.00e+00 1.00e+00h  1
 257 -2.5928327e-01 1.19e-02 3.11e-02  -6.0 2.67e+01    -  1.00e+00 1.00e+00h  1
 258 -2.5928325e-01 1.82e-07 6.03e-06  -6.0 9.07e-02    -  1.00e+00 1.00e+00h  1
 259 -2.5976532e-01 4.79e+00 4.07e+01  -7.5 3.42e+03    -  9.80e-02 2.00e-01f  1
iter    objective    inf_pr   inf_du lg(mu)  ||d||  lg(rg) alpha_du alpha_pr  ls
 260 -2.5984162e-01 4.56e+00 7.75e+01  -7.5 3.00e+03    -  4.62e-01 5.23e-02h  1
 261 -2.6006719e-01 3.60e+00 8.25e+01  -7.5 2.88e+02  -9.5 3.66e-01 2.12e-01h  1
 262 -2.6011190e-01 3.42e+00 1.10e+02  -7.5 6.51e+02 -10.0 4.07e-01 4.86e-02h  1
 263 -2.6042077e-01 2.73e+00 6.34e+01  -7.5 1.38e+03 -10.5 8.84e-02 3.15e-01h  1
 264 -2.6045575e-01 2.66e+00 6.09e+01  -7.5 2.18e+03 -10.1 8.89e-03 2.72e-02h  1
 265 -2.6048795e-01 2.09e+00 4.20e+01  -7.5 1.28e+01  -6.9 8.29e-02 2.12e-01h  1
 266 -2.6054520e-01 6.67e-01 8.37e+01  -7.5 5.39e+00  -6.5 8.99e-02 6.81e-01h  1
 267 -2.6060907e-01 7.60e-01 8.98e+01  -7.5 6.95e+01  -7.0 1.47e-04 1.56e-01f  1
 268 -2.6077735e-01 2.49e+00 6.30e+02  -7.5 3.78e+03  -7.4 1.68e-06 2.62e-03h  1
 269 -2.6078194e-01 2.48e+00 5.69e+02  -7.5 6.98e+01  -7.9 5.61e-02 4.27e-03h  1
iter    objective    inf_pr   inf_du lg(mu)  ||d||  lg(rg) alpha_du alpha_pr  ls
 270 -2.6079694e-01 2.26e+00 5.18e+02  -7.5 8.40e+01  -8.4 4.46e-05 8.99e-02f  1
 271 -2.6080991e-01 2.25e+00 5.13e+02  -7.5 5.76e+02  -8.9 1.30e-02 2.75e-03h  1
 272 -2.6084329e-01 2.25e+00 5.11e+02  -7.5 6.53e+04    -  4.01e-04 2.30e-03h  1
 273 -2.6087871e-01 2.24e+00 4.84e+02  -7.5 6.32e+03    -  2.65e-03 8.16e-03h  1
 274 -2.6095587e-01 2.09e+00 4.20e+02  -7.5 2.57e+03    -  2.40e-02 7.00e-02h  1
 275 -2.6097970e-01 2.01e+00 3.98e+02  -7.5 1.74e+02  -9.4 3.00e-01 4.04e-02f  1
 276 -2.6109530e-01 1.67e+00 2.26e+02  -7.5 3.25e+02  -9.8 6.61e-01 1.94e-01h  1
 277 -2.6154693e-01 7.66e+00 3.38e+02  -7.5 2.36e+03    -  4.91e-01 6.63e-01h  1
 278 -2.6155173e-01 7.18e+00 3.11e+02  -7.5 1.13e+03    -  3.18e-01 6.56e-02h  1
 279 -2.6161098e-01 4.15e+00 3.67e+02  -7.5 1.07e+03    -  2.89e-01 6.73e-01h  1
iter    objective    inf_pr   inf_du lg(mu)  ||d||  lg(rg) alpha_du alpha_pr  ls
 280 -2.6165652e-01 2.20e+00 2.60e+02  -7.5 7.50e+02    -  2.16e-01 5.58e-01h  1
 281 -2.6166065e-01 2.07e+00 5.38e+02  -7.5 7.44e+01 -10.3 6.03e-01 5.76e-02h  1
 282 -2.6170538e-01 3.12e-01 3.26e+02  -7.5 1.27e+02 -10.8 5.46e-01 1.00e+00h  1
 283 -2.6173872e-01 1.94e-01 1.04e+03  -7.5 1.09e+02 -11.3 3.25e-01 5.23e-01h  1
 284 -2.6174776e-01 1.79e-01 2.81e+03  -7.5 4.31e+02 -11.7 5.06e-01 9.60e-02h  1
 285 -2.6175199e-01 2.66e+01 1.78e+06  -7.5 2.56e+04 -12.2 2.53e-04 5.87e-02h  2
 286 -2.6179469e-01 5.28e+01 7.86e+03  -7.5 2.08e+03    -  1.94e-02 1.00e+00h  1
 287 -2.6177274e-01 2.33e+01 2.72e+03  -7.5 3.19e+03    -  2.04e-02 6.55e-01H  1
 288 -2.6176044e-01 7.10e+00 5.42e-01  -7.5 7.21e+02 -11.8 7.02e-01 1.00e+00h  1
 289 -2.6176575e-01 7.51e+00 1.45e+00  -7.5 3.33e+03 -12.3 1.65e-01 5.92e-01H  1
iter    objective    inf_pr   inf_du lg(mu)  ||d||  lg(rg) alpha_du alpha_pr  ls
 290 -2.6176663e-01 1.26e+01 2.55e-01  -7.5 1.57e+03    -  7.91e-01 5.00e-01h  2
 291 -2.6176645e-01 5.07e-03 2.15e+00  -7.5 8.82e+00 -10.9 1.64e-01 1.00e+00h  1
 292 -2.6176756e-01 1.80e+01 2.24e+00  -7.5 3.27e+03 -11.4 1.53e-01 3.40e-01h  2
 293 -2.6176862e-01 1.58e+01 8.15e-02  -7.5 9.99e+02 -11.9 1.00e+00 1.00e+00h  1
 294 -2.6177040e-01 9.83e+00 3.37e-01  -7.5 1.44e+03    -  7.44e-01 1.00e+00H  1
 295 -2.6177001e-01 2.17e+00 3.59e-02  -7.5 3.63e+02    -  1.00e+00 1.00e+00h  1
 296 -2.6177002e-01 7.92e-03 7.51e-05  -7.5 1.94e+01    -  1.00e+00 1.00e+00h  1
 297 -2.6177002e-01 2.25e-05 1.44e-07  -7.5 1.16e+00    -  1.00e+00 1.00e+00h  1
 298 -2.6177002e-01 2.86e-10 6.36e-13  -7.5 8.64e-05    -  1.00e+00 1.00e+00h  1
 299 -2.6177191e-01 1.02e+00 5.54e+00  -9.0 1.43e+03    -  5.53e-01 1.71e-01h  1
iter    objective    inf_pr   inf_du lg(mu)  ||d||  lg(rg) alpha_du alpha_pr  ls
 300 -2.6177325e-01 5.07e+00 6.43e+00  -9.0 2.95e+03    -  4.47e-01 1.68e-01h  1
 301 -2.6177629e-01 5.47e+01 2.67e+00  -9.0 3.20e+03    -  4.61e-01 5.40e-01h  1
 302 -2.6177736e-01 4.26e+01 4.61e+01  -9.0 1.50e+03 -12.4 3.53e-03 9.00e-01h  1
 303 -2.6177813e-01 1.01e+02 1.92e+01  -9.0 5.08e+03    -  1.53e-01 5.81e-01h  1
 304 -2.6177918e-01 5.23e+01 7.54e+00  -9.0 1.82e+03    -  4.66e-02 6.06e-01h  1
 305 -2.6178049e-01 5.51e+01 1.01e+01  -9.0 1.99e+03 -12.8 4.62e-01 1.00e+00h  1
 306 -2.6178082e-01 3.07e+01 4.21e+00  -9.0 3.84e+02 -11.5 2.53e-01 4.43e-01h  1
 307 -2.6178083e-01 2.79e+00 5.59e+00  -9.0 3.45e+02    -  3.33e-01 1.00e+00h  1
 308 -2.6178111e-01 1.54e+00 3.71e+00  -9.0 4.12e+02 -12.0 1.88e-01 5.06e-01h  1
 309 -2.6178147e-01 1.40e+01 1.86e+00  -9.0 9.82e+02 -12.5 4.65e-01 1.00e+00h  1
iter    objective    inf_pr   inf_du lg(mu)  ||d||  lg(rg) alpha_du alpha_pr  ls
 310 -2.6178167e-01 2.34e+00 1.05e+00  -9.0 3.79e+02 -12.0 4.16e-01 1.00e+00h  1
 311 -2.6178221e-01 2.09e+01 4.55e-03  -9.0 1.16e+03 -12.5 9.99e-01 1.00e+00h  1
 312 -2.6178326e-01 9.55e+01 1.40e-02  -9.0 9.65e+03 -13.0 2.79e-01 2.83e-01h  1
 313 -2.6178335e-01 9.46e+01 3.53e-02  -9.0 2.42e+04    -  6.41e-02 9.52e-03h  3
 314 -2.6178354e-01 9.22e+01 1.23e-01  -9.0 1.33e+04    -  2.16e-01 2.59e-02h  2
 315 -2.6178405e-01 8.02e+01 1.93e-01  -9.0 4.63e+03    -  3.63e-01 1.49e-01h  1
 316 -2.6178511e-01 5.88e+01 5.34e-01  -9.0 2.24e+03    -  3.09e-01 4.91e-01h  1
 317 -2.6178523e-01 5.68e+01 1.31e+00  -9.0 3.74e+03    -  8.60e-03 3.54e-02h  1
 318 -2.6178683e-01 5.11e+01 1.14e+01  -9.0 2.12e+03    -  6.18e-02 7.10e-01h  1
 319 -2.6178725e-01 4.38e+01 4.63e+00  -9.0 1.97e+03    -  6.23e-02 1.86e-01h  1
iter    objective    inf_pr   inf_du lg(mu)  ||d||  lg(rg) alpha_du alpha_pr  ls
 320 -2.6178765e-01 3.80e+01 3.73e+00  -9.0 1.92e+03    -  2.99e-01 1.73e-01h  1
 321 -2.6178922e-01 4.14e+01 3.08e+01  -9.0 1.89e+03    -  9.55e-02 7.18e-01h  1
 322 -2.6179099e-01 5.18e+01 1.53e+01  -9.0 1.75e+03    -  1.19e-01 9.61e-01h  1
 323 -2.6179142e-01 3.90e+01 1.66e+01  -9.0 1.73e+03    -  1.56e-02 4.31e-01h  1
 324 -2.6179207e-01 3.71e+01 1.04e+01  -9.0 1.61e+03    -  1.86e-03 6.96e-01h  1
 325 -2.6179240e-01 6.67e+00 4.58e+01  -9.0 5.34e+02    -  4.04e-02 1.00e+00f  1
 326 -2.6179342e-01 4.85e+01 1.82e+01  -9.0 2.51e+03 -12.6 4.49e-01 6.02e-01h  1
 327 -2.6179318e-01 3.76e+01 1.21e+01  -9.0 2.54e+03    -  1.04e-02 3.33e-01H  1
 328 -2.6179323e-01 3.76e+01 1.21e+01  -9.0 1.46e+04 -13.1 1.01e-01 7.29e-03h  4
 329 -2.6179325e-01 3.76e+01 1.21e+01  -9.0 3.20e+04    -  8.23e-02 1.52e-03h  5
iter    objective    inf_pr   inf_du lg(mu)  ||d||  lg(rg) alpha_du alpha_pr  ls
 330 -2.6179370e-01 3.97e+01 6.40e+00  -9.0 1.96e+03    -  8.13e-01 4.73e-01H  1
 331 -2.6179373e-01 3.57e+01 7.42e+00  -9.0 1.14e+03    -  3.12e-02 1.12e-01h  1
 332 -2.6179366e-01 6.99e-01 1.17e+02  -9.0 2.06e+02    -  1.65e-02 1.00e+00h  1
 333 -2.6179367e-01 5.30e-02 3.49e-04  -9.0 4.65e+01    -  1.00e+00 1.00e+00h  1
 334 -2.6179373e-01 4.12e-01 1.18e-01  -9.0 7.45e+02    -  1.00e+00 1.67e-01h  1
 335 -2.6179372e-01 4.02e-04 3.74e-07  -9.0 4.50e+00    -  1.00e+00 1.00e+00h  1
 336 -2.6179372e-01 1.81e-05 2.55e-09  -9.0 8.68e-01    -  1.00e+00 1.00e+00h  1
 337 -2.6179372e-01 2.65e-10 4.97e-14  -9.0 6.61e-04    -  1.00e+00 1.00e+00h  1

Number of Iterations....: 337

                                   (scaled)                 (unscaled)
Objective...............:  -2.6179372323677996e-01   -2.6179372323677996e-01
Dual infeasibility......:   4.9729852773898430e-14    4.9729852773898430e-14
Constraint violation....:   2.6520283495298780e-10    2.6520283495298780e-10
Complementarity.........:   9.0909092941425978e-10    9.0909092941425978e-10
Overall NLP error.......:   9.0909092941425978e-10    9.0909092941425978e-10


Number of objective function evaluations             = 454
Number of objective gradient evaluations             = 338
Number of equality constraint evaluations            = 463
Number of inequality constraint evaluations          = 455
Number of equality constraint Jacobian evaluations   = 338
Number of inequality constraint Jacobian evaluations = 338
Number of Lagrangian Hessian evaluations             = 337
Total CPU secs in IPOPT (w/o function evaluations)   =    870.799
Total CPU secs in NLP function evaluations           =     12.070

EXIT: Optimal Solution Found.
